Instance name:    bar-n200-5
Authors:          PDPTW Solver
Date:             2025-11-21
Reference:        LNS with SA/RTR
Solution
Route 1 : 94 78 194 85 185 47 40 140 147 64 164 7 97 107 197 178 9 109 72 172 100 200 13 113 27 127 39 139 61 161 99 199 18 118 17 117 76 176
Route 2 : 3 92 103 42 142 74 174 11 192 111 10 71 110 8 108 12 112 65 165 171 51 25 125 83 77 183 177 32 132 69 151 169 73 173 2 102 60 160 16 116
Route 3 : 44 144 34 134 24 84 124 26 126 184 87 187 30 130 75 175 93 193 55 29 129 91 191 56 156 20 120 155 98 198 48 62 162 96 28 128 196 148
Route 4 : 82 182 89 189 6 106 41 22 122 141 33 63 50 150 21 133 46 163 146 90 190 54 154 121 52 152 1 4 104 31 131 101 45 5 105 145 67 167 79 35 135 179
Route 5 : 86 49 149 80 180 36 136 57 186 157 59 159 19 119 53 153 58 23 123 38 138 14 114 81 181 37 158 137 66 43 143 166 88 188 70 15 115 170 68 168 95 195
